solution status: time limit reached
objective value:                                  267
shell_i_$_197__8                                    1 	(obj:0)
shell_j_$_201                                       1 	(obj:0)
shell_i_$_95                                        1 	(obj:0)
shell_j_$_77                                        1 	(obj:0)
shell_j_$_38                                        1 	(obj:0)
shell_i_$_146                                       1 	(obj:0)
shell_i_$_98                                        1 	(obj:0)
shell_j_$_242                                       1 	(obj:0)
shell_j_$_246__8                                    1 	(obj:0)
shell_j_$_240                                       1 	(obj:0)
shell_j_$_89                                        1 	(obj:0)
shell_j_$_187                                       1 	(obj:0)
shell_j_$_64                                        1 	(obj:0)
shell_j_$_252                                       1 	(obj:0)
shell_j_$_212                                       1 	(obj:0)
shell_j_$_164__8                                    1 	(obj:0)
shell_j_$_173                                       1 	(obj:0)
shell_j_$_206                                       1 	(obj:0)
shell_j_$_54                                        1 	(obj:0)
shell_j_$_202__8                                    1 	(obj:0)
shell_j_$_254__8                                    1 	(obj:0)
shell_j_$_170                                       1 	(obj:0)
shell_j_$_214                                       1 	(obj:0)
shell_j_$_211                                       1 	(obj:0)
shell_j_$_171                                       1 	(obj:0)
shell_j_$_281                                       1 	(obj:0)
shell_j_$_160                                       1 	(obj:0)
shell_j_$_158                                       1 	(obj:0)
shell_j_$_228                                       1 	(obj:0)
shell_j_$_205__8                                    1 	(obj:0)
shell_j_$_280                                       1 	(obj:0)
shell_j_$_195__8                                    1 	(obj:0)
shell_i_$_166                                       1 	(obj:0)
shell_j_$_33                                        1 	(obj:0)
shell_i_$_192                                       1 	(obj:0)
shell_j_$_165                                       1 	(obj:0)
shell_j_$_245__8                                    1 	(obj:0)
shell_j_$_53                                        1 	(obj:0)
shell_j_$_151                                       1 	(obj:0)
shell_j_$_31                                        1 	(obj:0)
shell_j_$_183                                       1 	(obj:0)
shell_i_$_269                                       1 	(obj:0)
shell_j_$_163__8                                    1 	(obj:0)
shell_j_$_243__8                                    1 	(obj:0)
shell_j_$_30                                        1 	(obj:0)
shell_j_$_253                                       1 	(obj:0)
shell_j_$_41                                        1 	(obj:0)
shell_j_$_162__8                                    1 	(obj:0)
shell_j_$_101                                       1 	(obj:0)
shell_j_$_63                                        1 	(obj:0)
shell_j_$_60                                        1 	(obj:0)
shell_j_$_55                                        1 	(obj:0)
shell_i_$_224                                       1 	(obj:0)
shell_j_$_236__8                                    1 	(obj:0)
shell_j_$_76                                        1 	(obj:0)
shell_j_$_213__8                                    1 	(obj:0)
shell_j_$_274                                       1 	(obj:0)
shell_j_$_247                                       1 	(obj:0)
shell_j_$_204__8                                    1 	(obj:0)
shell_j_$_172__8                                    1 	(obj:0)
shell_j_$_52                                        1 	(obj:0)
shell_j_$_248                                       1 	(obj:0)
shell_j_$_154__8                                    1 	(obj:0)
shell_i_$_88                                        1 	(obj:0)
shell_j_$_100                                       1 	(obj:0)
shell_j_$_255                                       1 	(obj:0)
shell_j_$_238__8                                    1 	(obj:0)
shell_j_$_203__8                                    1 	(obj:0)
shell_j_$_161__8                                    1 	(obj:0)
shell_j_$_199                                       1 	(obj:0)
shell_j_$_94                                        1 	(obj:0)
shell_i_$_99                                        1 	(obj:0)
shell_j_$_156__8                                    1 	(obj:0)
shell_j_$_32                                        1 	(obj:0)
shell_j_$_265                                       1 	(obj:0)
shell_j_$_233                                       1 	(obj:0)
shell_j_$_283                                       1 	(obj:0)
shell_j_$_42                                        1 	(obj:0)
shell_i_$_207                                       1 	(obj:0)
shell_j_$_244__8                                    1 	(obj:0)
$_166_x                                            10 	(obj:0)
$_166_y                                             6 	(obj:0)
$_166_z                                            25 	(obj:0)
$_146_x                                            10 	(obj:0)
$_252_x                                             7 	(obj:0)
$_33_x                                              6 	(obj:0)
$_33_y                                             10 	(obj:0)
$_33_z                                             21 	(obj:0)
$_252_y                                            10 	(obj:0)
$_252_z                                            10 	(obj:0)
$_192_x                                            10 	(obj:0)
$_192_y                                             8 	(obj:0)
$_192_z                                            15 	(obj:0)
$_146_y                                             6 	(obj:0)
$_146_z                                            15 	(obj:0)
$_165_x                                             6 	(obj:0)
$_165_y                                            10 	(obj:0)
$_165_z                                            25 	(obj:0)
$_212_x                                             6 	(obj:0)
$_212_y                                            10 	(obj:0)
$_245__8_x                                          5 	(obj:0)
$_245__8_y                                         10 	(obj:0)
$_245__8_z                                         20 	(obj:0)
$_212_z                                            11 	(obj:0)
$_95_x                                             10 	(obj:0)
$_53_x                                              7 	(obj:0)
$_53_y                                             10 	(obj:0)
$_53_z                                             21 	(obj:0)
$_95_y                                              6 	(obj:0)
$_164__8_x                                          7 	(obj:0)
$_151_x                                             7 	(obj:0)
$_151_y                                            10 	(obj:0)
$_151_z                                            19 	(obj:0)
$_164__8_y                                         10 	(obj:0)
$_164__8_z                                         25 	(obj:0)
$_31_x                                              8 	(obj:0)
$_31_y                                             10 	(obj:0)
$_31_z                                             25 	(obj:0)
$_98_x                                             10 	(obj:0)
$_98_y                                              6 	(obj:0)
$_183_x                                             8 	(obj:0)
$_183_y                                            10 	(obj:0)
$_183_z                                            19 	(obj:0)
$_173_x                                             7 	(obj:0)
$_173_y                                            10 	(obj:0)
$_269_x                                            10 	(obj:0)
$_269_y                                             6 	(obj:0)
$_269_z                                             8 	(obj:0)
$_173_z                                            11 	(obj:0)
$_98_z                                             12 	(obj:0)
$_163__8_x                                          9 	(obj:0)
$_163__8_y                                         10 	(obj:0)
$_163__8_z                                         25 	(obj:0)
$_95_z                                             18 	(obj:0)
$_206_x                                             8 	(obj:0)
$_243__8_x                                          5 	(obj:0)
$_243__8_y                                         10 	(obj:0)
$_243__8_z                                          8 	(obj:0)
$_206_y                                            10 	(obj:0)
$_206_z                                            21 	(obj:0)
$_30_x                                              5 	(obj:0)
$_30_y                                             10 	(obj:0)
$_30_z                                             17 	(obj:0)
$_197__8_y                                          9 	(obj:0)
$_242_x                                             6 	(obj:0)
$_253_x                                             8 	(obj:0)
$_253_y                                            10 	(obj:0)
$_253_z                                            10 	(obj:0)
$_54_x                                              6 	(obj:0)
$_54_y                                             10 	(obj:0)
$_41_x                                              5 	(obj:0)
$_41_y                                             10 	(obj:0)
$_41_z                                             13 	(obj:0)
$_54_z                                             18 	(obj:0)
$_242_y                                            10 	(obj:0)
$_162__8_x                                          9 	(obj:0)
$_162__8_y                                         10 	(obj:0)
$_162__8_z                                         19 	(obj:0)
$_242_z                                            13 	(obj:0)
$_202__8_x                                          8 	(obj:0)
$_101_x                                            10 	(obj:0)
$_101_y                                            10 	(obj:0)
$_101_z                                            23 	(obj:0)
$_202__8_y                                         10 	(obj:0)
$_202__8_z                                         11 	(obj:0)
$_63_x                                              6 	(obj:0)
$_63_y                                             10 	(obj:0)
$_63_z                                              8 	(obj:0)
$_201_x                                             9 	(obj:0)
$_77_x                                              7 	(obj:0)
$_60_x                                              7 	(obj:0)
$_60_y                                             10 	(obj:0)
$_60_z                                              8 	(obj:0)
$_254__8_x                                          8 	(obj:0)
$_254__8_y                                         10 	(obj:0)
$_55_x                                              7 	(obj:0)
$_55_y                                             10 	(obj:0)
$_55_z                                             14 	(obj:0)
$_254__8_z                                          8 	(obj:0)
$_246__8_x                                          7 	(obj:0)
$_224_x                                            10 	(obj:0)
$_224_y                                             6 	(obj:0)
$_224_z                                            17 	(obj:0)
$_246__8_y                                         10 	(obj:0)
$_170_x                                             8 	(obj:0)
$_236__8_x                                         10 	(obj:0)
$_236__8_y                                         10 	(obj:0)
$_236__8_z                                         16 	(obj:0)
$_170_y                                            10 	(obj:0)
$_170_z                                            14 	(obj:0)
$_76_x                                              6 	(obj:0)
$_76_y                                             10 	(obj:0)
$_76_z                                             12 	(obj:0)
$_246__8_z                                         18 	(obj:0)
$_77_y                                             10 	(obj:0)
$_213__8_x                                          7 	(obj:0)
$_213__8_y                                         10 	(obj:0)
$_213__8_z                                         12 	(obj:0)
$_214_x                                             9 	(obj:0)
$_214_y                                            10 	(obj:0)
$_274_x                                             8 	(obj:0)
$_274_y                                            10 	(obj:0)
$_274_z                                            13 	(obj:0)
$_214_z                                            14 	(obj:0)
$_77_z                                             13 	(obj:0)
$_247_x                                             6 	(obj:0)
$_247_y                                            10 	(obj:0)
$_247_z                                            20 	(obj:0)
$_240_x                                             9 	(obj:0)
$_211_x                                             8 	(obj:0)
$_204__8_x                                          7 	(obj:0)
$_204__8_y                                         10 	(obj:0)
$_204__8_z                                         20 	(obj:0)
$_211_y                                            10 	(obj:0)
$_211_z                                            12 	(obj:0)
$_172__8_x                                          5 	(obj:0)
$_172__8_y                                         10 	(obj:0)
$_172__8_z                                         15 	(obj:0)
$_240_y                                            10 	(obj:0)
$_240_z                                            10 	(obj:0)
$_52_x                                              9 	(obj:0)
$_52_y                                             10 	(obj:0)
$_52_z                                             12 	(obj:0)
$_171_x                                            10 	(obj:0)
$_171_y                                            10 	(obj:0)
$_248_x                                             8 	(obj:0)
$_248_y                                            10 	(obj:0)
$_248_z                                            18 	(obj:0)
$_171_z                                            14 	(obj:0)
$_201_y                                            10 	(obj:0)
$_154__8_x                                         10 	(obj:0)
$_154__8_y                                         10 	(obj:0)
$_154__8_z                                         19 	(obj:0)
$_201_z                                            11 	(obj:0)
$_281_x                                             9 	(obj:0)
$_88_x                                             10 	(obj:0)
$_88_y                                             10 	(obj:0)
$_88_z                                             18 	(obj:0)
$_281_y                                            10 	(obj:0)
$_281_z                                            18 	(obj:0)
$_100_x                                             6 	(obj:0)
$_100_y                                            10 	(obj:0)
$_100_z                                            15 	(obj:0)
$_89_x                                              9 	(obj:0)
$_89_y                                             10 	(obj:0)
$_255_x                                            10 	(obj:0)
$_255_y                                            10 	(obj:0)
$_255_z                                            10 	(obj:0)
$_160_x                                             7 	(obj:0)
$_160_y                                            10 	(obj:0)
$_238__8_x                                          8 	(obj:0)
$_238__8_y                                         10 	(obj:0)
$_238__8_z                                         20 	(obj:0)
$_160_z                                            15 	(obj:0)
$_89_z                                             21 	(obj:0)
$_203__8_x                                          9 	(obj:0)
$_203__8_y                                         10 	(obj:0)
$_203__8_z                                         20 	(obj:0)
$_38_x                                              8 	(obj:0)
$_158_x                                             9 	(obj:0)
$_161__8_x                                          6 	(obj:0)
$_161__8_y                                         10 	(obj:0)
$_161__8_z                                         17 	(obj:0)
$_158_y                                            10 	(obj:0)
$_158_z                                            13 	(obj:0)
$_199_x                                            10 	(obj:0)
$_199_y                                            10 	(obj:0)
$_199_z                                            11 	(obj:0)
$_38_y                                             10 	(obj:0)
$_187_x                                             9 	(obj:0)
$_94_x                                              9 	(obj:0)
$_94_y                                             10 	(obj:0)
$_94_z                                              8 	(obj:0)
$_228_x                                            10 	(obj:0)
$_228_y                                            10 	(obj:0)
$_99_x                                             10 	(obj:0)
$_99_y                                             10 	(obj:0)
$_99_z                                             13 	(obj:0)
$_228_z                                            12 	(obj:0)
$_187_y                                            10 	(obj:0)
$_156__8_x                                         10 	(obj:0)
$_156__8_y                                         10 	(obj:0)
$_156__8_z                                         25 	(obj:0)
$_187_z                                            15 	(obj:0)
$_205__8_x                                         10 	(obj:0)
$_32_x                                             10 	(obj:0)
$_32_y                                             10 	(obj:0)
$_32_z                                             24 	(obj:0)
$_205__8_y                                         10 	(obj:0)
$_205__8_z                                         20 	(obj:0)
$_265_x                                            10 	(obj:0)
$_265_y                                            10 	(obj:0)
$_265_z                                            15 	(obj:0)
$_38_z                                             15 	(obj:0)
$_197__8_z                                         20 	(obj:0)
$_233_x                                             7 	(obj:0)
$_233_y                                            10 	(obj:0)
$_233_z                                            17 	(obj:0)
$_280_x                                            10 	(obj:0)
$_280_y                                            10 	(obj:0)
$_283_x                                            10 	(obj:0)
$_283_y                                            10 	(obj:0)
$_283_z                                             8 	(obj:0)
$_280_z                                             9 	(obj:0)
$_64_x                                              8 	(obj:0)
$_42_x                                              4 	(obj:0)
$_42_y                                             10 	(obj:0)
$_42_z                                             19 	(obj:0)
$_64_y                                             10 	(obj:0)
$_195__8_x                                          9 	(obj:0)
$_207_x                                            10 	(obj:0)
$_207_y                                            10 	(obj:0)
$_207_z                                            21 	(obj:0)
$_195__8_y                                         10 	(obj:0)
$_195__8_z                                         17 	(obj:0)
$_244__8_x                                         10 	(obj:0)
$_244__8_y                                         10 	(obj:0)
$_244__8_z                                         17 	(obj:0)
$_64_z                                             17 	(obj:0)
$_197__8_x                                         10 	(obj:0)
x401                                                2 	(obj:1)
x402                                                1 	(obj:1)
x408                                                4 	(obj:1)
x409                                                2 	(obj:1)
x410                                                3 	(obj:1)
x413                                                2 	(obj:1)
x417                                                3 	(obj:1)
x420                                                4 	(obj:1)
x421                                                2 	(obj:1)
x422                                                3 	(obj:1)
x425                                                3 	(obj:1)
x430                                                1 	(obj:1)
x433                                                1 	(obj:1)
x436                                                1 	(obj:1)
x437                                                1 	(obj:1)
x439                                                1 	(obj:1)
x440                                                2 	(obj:1)
x443                                                2 	(obj:1)
x446                                                3 	(obj:1)
x448                                                2 	(obj:1)
x449                                                4 	(obj:1)
x452                                                4 	(obj:1)
x455                                                2 	(obj:1)
x457                                                2 	(obj:1)
x458                                                3 	(obj:1)
x460                                                2 	(obj:1)
x461                                                3 	(obj:1)
x464                                                2 	(obj:1)
x465                                                2 	(obj:1)
x466                                                2 	(obj:1)
x467                                                2 	(obj:1)
x469                                                3 	(obj:1)
x470                                                4 	(obj:1)
x473                                                2 	(obj:1)
x475                                                1 	(obj:1)
x476                                                2 	(obj:1)
x479                                                2 	(obj:1)
x482                                                2 	(obj:1)
x484                                                1 	(obj:1)
x485                                                1 	(obj:1)
x487                                                3 	(obj:1)
x488                                                1 	(obj:1)
x490                                                3 	(obj:1)
x491                                                2 	(obj:1)
x494                                                1 	(obj:1)
x503                                                1 	(obj:1)
x506                                                3 	(obj:1)
x509                                                1 	(obj:1)
x514                                                2 	(obj:1)
x518                                                1 	(obj:1)
x520                                                1 	(obj:1)
x524                                                2 	(obj:1)
x528                                                4 	(obj:1)
x529                                                5 	(obj:1)
x532                                                2 	(obj:1)
x533                                                3 	(obj:1)
x534                                                2 	(obj:1)
x536                                                2 	(obj:1)
x538                                                5 	(obj:1)
x539                                                4 	(obj:1)
x540                                                2 	(obj:1)
x541                                                6 	(obj:1)
x542                                                4 	(obj:1)
x544                                                2 	(obj:1)
x545                                                1 	(obj:1)
x548                                                1 	(obj:1)
x551                                                2 	(obj:1)
x553                                                2 	(obj:1)
x554                                                2 	(obj:1)
x557                                                1 	(obj:1)
x559                                                2 	(obj:1)
x561                                                3 	(obj:1)
x565                                                8 	(obj:1)
x566                                                2 	(obj:1)
x572                                                1 	(obj:1)
x575                                                2 	(obj:1)
x578                                                3 	(obj:1)
x580                                                2 	(obj:1)
x581                                                2 	(obj:1)
x584                                                4 	(obj:1)
x586                                                2 	(obj:1)
x587                                                4 	(obj:1)
x593                                                3 	(obj:1)
x596                                                3 	(obj:1)
x597                                                4 	(obj:1)
x600                                                4 	(obj:1)
x605                                                3 	(obj:1)
x607                                                3 	(obj:1)
x611                                                1 	(obj:1)
x614                                                4 	(obj:1)
x616                                                2 	(obj:1)
x617                                                4 	(obj:1)
x622                                                2 	(obj:1)
x623                                                5 	(obj:1)
x629                                                2 	(obj:1)
x632                                                4 	(obj:1)
x638                                                3 	(obj:1)
x647                                                2 	(obj:1)
x653                                                4 	(obj:1)
x655                                                5 	(obj:1)
x662                                                1 	(obj:1)
x670                                                2 	(obj:1)
x673                                                3 	(obj:1)
x676                                                2 	(obj:1)
x680                                                1 	(obj:1)
x689                                                1 	(obj:1)
x693                                                2 	(obj:1)
x694                                                2 	(obj:1)
